(set-info :smt-lib-version 2.6)
(set-logic QF_S)
(set-info :source |
Generated by: Murphy Berzish, Mitja Kulczynski, Federico Mora, Florin Manea, Joel Day, Dirk Nowotka, Vijay Ganesh, Zhengyang Lu
Generated on: 2020-10-01
Description: Translated from a collection of real-world regex queries, AutomataArk, collected by Loris D’Antoni and Fang Wang: https://github.com/lorisdanto/automatark
Application: Evaluate solvers on real-world regex queries
Target solver: Z3str3RE, CVC4, OSTRICH, Z3seq, Z3str3, Z3-Trau
Publications: Berzish, M., Kulczynski, M., Mora, F., Manea, F., Day, J. D., Nowotka, D., & Ganesh, V. (2021, July). An SMT solver for regular expressions and linear arithmetic over string length. In CAV 2021.
|)
(set-info :license "https://creativecommons.org/licenses/by/4.0/")
(set-info :category "industrial")
(set-info :status unsat)

(declare-const X String)
(assert (not (str.in_re X (re.++ (re.opt (str.to_re "http://")) (re.opt (str.to_re "www.")) (str.to_re ".") (re.union ((_ re.loop 2 4) (re.union (re.range "A" "Z") (re.range "a" "z"))) (re.++ ((_ re.loop 2 2) (re.union (re.range "A" "Z") (re.range "a" "z"))) (str.to_re ".") ((_ re.loop 2 2) (re.union (re.range "A" "Z") (re.range "a" "z"))))) (str.to_re "/") (re.opt (str.to_re "watch?v=")) ((_ re.loop 6 12) (re.union (re.range "A" "Z") (re.range "a" "z") (re.range "0" "9") (str.to_re "-") (str.to_re "_"))) (re.* (re.++ (str.to_re "&") (re.+ (re.union (re.range "A" "Z") (re.range "a" "z") (re.range "0" "9") (str.to_re "-") (str.to_re "_"))) (str.to_re "=") (re.+ (re.union (re.range "A" "Z") (re.range "a" "z") (re.range "0" "9") (str.to_re "-") (str.to_re "_"))))) (str.to_re "\u{a}y") (re.union (str.to_re "outube") (str.to_re "img") (str.to_re "outu"))))))
(assert (str.in_re X (re.++ (re.+ (re.++ (re.union (re.range "0" "9") (re.range "A" "Z") (re.range "a" "z") (str.to_re "_")) (re.opt (re.union (str.to_re " ") (str.to_re "\u{9}") (str.to_re "\u{a}") (str.to_re "\u{c}") (str.to_re "\u{d}"))))) (str.to_re "\u{a}"))))
(assert (not (str.in_re X (re.++ (str.to_re "Host:") (re.+ (re.union (re.range "0" "9") (re.range "A" "Z") (re.range "a" "z") (str.to_re "_"))) (str.to_re "User-Agent:") (re.union (str.to_re " ") (str.to_re "\u{9}") (str.to_re "\u{a}") (str.to_re "\u{c}") (str.to_re "\u{d}")) (str.to_re "TeomaBarHost:HoursHost:Host:\u{a}")))))
(assert (str.in_re X (re.++ (str.to_re "\u{a}") (re.union (re.++ ((_ re.loop 0 0) (re.range "0" "9")) (re.range "0" "9")) (re.++ ((_ re.loop 0 0) (re.range "0" "9")) (str.to_re "1") ((_ re.loop 0 0) (re.range "0" "9")) (re.range "0" "2"))) (str.to_re ":") ((_ re.loop 0 0) (re.range "0" "9")) (re.range "0" "5") ((_ re.loop 0 0) (re.range "0" "9")) (re.range "0" "9") (str.to_re ":") ((_ re.loop 0 0) (re.range "0" "9")) (re.range "0" "5") ((_ re.loop 0 0) (re.range "0" "9")) (re.range "0" "9") (re.union (str.to_re " ") (str.to_re "\u{9}") (str.to_re "\u{a}") (str.to_re "\u{c}") (str.to_re "\u{d}")) (re.union (str.to_re "AM") (str.to_re "PM")))))
(assert (not (str.in_re X (re.++ (re.union (re.++ ((_ re.loop 0 2) (re.range "0" "9")) (str.to_re "(") ((_ re.loop 3 3) (re.range "0" "9")) (str.to_re ")")) (re.++ ((_ re.loop 3 3) (re.range "0" "9")) (str.to_re "-"))) ((_ re.loop 3 3) (re.range "0" "9")) (str.to_re "-") ((_ re.loop 4 4) (re.range "0" "9")) (re.* (re.union (str.to_re " ") (str.to_re "\u{9}") (str.to_re "\u{a}") (str.to_re "\u{c}") (str.to_re "\u{d}"))) (re.opt (re.++ (re.union (re.++ (re.union (str.to_re "E") (str.to_re "e")) (re.union (str.to_re "x") (str.to_re "X")) (re.union (str.to_re "T") (str.to_re "t"))) (re.++ (re.union (str.to_re "P") (str.to_re "p")) (re.union (str.to_re "O") (str.to_re "o")) (re.union (str.to_re "S") (str.to_re "s")) (re.union (str.to_re "T") (str.to_re "t")) (re.union (str.to_re "E") (str.to_re "e")))) (str.to_re ":") ((_ re.loop 1 5) (re.range "0" "9")))) (str.to_re "\u{a}")))))
(check-sat)

(exit)
